p td 80 77
0 19
0 30
0 47
0 68
1 11
2 43
3 39
3 41
4 32
4 73
6 43
6 59
7 49
7 51
8 10
8 24
8 31
8 58
10 36
10 54
10 65
11 20
11 21
12 35
12 50
13 24
13 29
13 79
14 39
14 40
15 56
15 57
17 46
18 26
18 27
19 23
19 42
20 37
21 57
21 75
22 29
24 70
25 56
26 41
26 55
27 33
27 43
27 59
28 52
28 71
31 63
31 79
33 62
34 63
34 72
35 62
35 63
36 41
36 73
37 63
41 77
46 64
46 74
47 58
49 59
50 51
50 63
53 55
53 73
53 75
53 76
54 65
58 66
58 67
58 75
60 75
67 69
